(set-logic ALL)
(declare-const n_VAR Int)
(assert (not (= n_VAR 0)))
(assert (not (= n_VAR 1)))
(assert (< 0 n_VAR))
(assert (< 1 n_VAR))
(assert (< 2 n_VAR))
(assert (< 3 n_VAR))
(assert (< 4 n_VAR))
(assert (< 5 n_VAR))
(check-sat)
(get-value (n_VAR))
